************************************************************************
file with basedata            : mm51_.bas
initial value random generator: 12860204
************************************************************************
projects                      :  1
jobs (incl. supersource/sink ):  12
horizon                       :  74
RESOURCES
  - renewable                 :  2   R
  - nonrenewable              :  2   N
  - doubly constrained        :  0   D
************************************************************************
PROJECT INFORMATION:
pronr.  #jobs rel.date duedate tardcost  MPM-Time
    1     10      0        9        5        9
************************************************************************
PRECEDENCE RELATIONS:
jobnr.    #modes  #successors   successors
   1        1          3           2   3   4
   2        3          1          10
   3        3          1           7
   4        3          3           5   6  11
   5        3          1           9
   6        3          2           9  10
   7        3          2           8   9
   8        3          2          10  11
   9        3          1          12
  10        3          1          12
  11        3          1          12
  12        1          0        
************************************************************************
REQUESTS/DURATIONS:
jobnr. mode duration  R 1  R 2  N 1  N 2
------------------------------------------------------------------------
  1      1     0       0    0    0    0
  2      1     4      10    9    9    0
         2     4      10    8    0    7
         3     8      10    4    0    6
  3      1     4      10    5    0    5
         2     6       9    3    0    5
         3     9       7    2    3    0
  4      1     3       2    6    8    0
         2     6       1    4    0    6
         3    10       1    4    0    4
  5      1     2       8    6    4    0
         2     8       5    5    4    0
         3     9       4    3    4    0
  6      1     2       7    8    0    7
         2     6       4    5    0    6
         3     9       3    5    4    0
  7      1     1       4    7    4    0
         2     3       4    6    0    3
         3     6       4    4    1    0
  8      1     1       5    8    0    4
         2     3       3    7    0    2
         3     4       2    7    0    2
  9      1     1       6    6    0    9
         2     2       3    6    5    0
         3     2       5    5    4    0
 10      1     2       7   10    3    0
         2     5       5    8    0   10
         3     9       5    8    1    0
 11      1     3       7   10    0    7
         2     8       7    4    8    0
         3     8       5    4   10    0
 12      1     0       0    0    0    0
************************************************************************
RESOURCEAVAILABILITIES:
  R 1  R 2  N 1  N 2
   28   22   36   41
************************************************************************
MAXIMAL LAGS:
from  to  type  delay
    1   12   ES      0
    1    2   ES      0
    2   12   ES      0
    1    3   ES      0
    3   12   ES      0
    1    4   ES      0
    4   12   ES      0
    1    5   ES      0
    5   12   ES      0
    1    6   ES      0
    6   12   ES      0
    1    7   ES      0
    7   12   ES      0
    1    8   ES      0
    8   12   ES      0
    1    9   ES      0
    9   12   ES      0
    1   10   ES      0
   10   12   ES      0
    1   11   ES      0
   11   12   ES      0
    1   12   ES      0
    2   10   SS      5
    2   10   SE      2
    2   10   ES     -8
    2   10   EE      7
    3    7   SS      8
    3    7   SE    -12
    3    7   ES     -3
    3    7   EE      3
    4    5   SS      3
    4    5   SE     -4
    4    5   ES     -8
    4    5   EE     -2
    4    6   SS      9
    4    6   SE      5
    4    6   ES     -1
    4    6   EE      7
    4   11   SS      9
    4   11   SE     10
    4   11   ES     -9
    4   11   EE      3
    5    9   SS      3
    5    9   SE     11
    5    9   ES      6
    5    9   EE     -6
    6    9   SS     -8
    6    9   SE     -5
    6    9   ES      4
    6    9   EE     -8
    6   10   SS     -8
    6   10   SE     -5
    6   10   ES      9
    6   10   EE    -10
    7    8   SS     11
    7    8   SE     -9
    7    8   ES     10
    7    8   EE      0
    7    9   SS     -3
    7    9   SE      7
    7    9   ES     -9
    7    9   EE     -5
    8   10   SS     -5
    8   10   SE     -4
    8   10   ES     -7
    8   10   EE     11
    8   11   SS      9
    8   11   SE     -3
    8   11   ES     -2
    8   11   EE     10
************************************************************************
